\ Model P2E2_ILP
\ LP format - for model browsing. Use MPS format to capture full model detail.
Minimize
  a0 + a1 + a2 + a3 + a4 + a5 + a6 + a7 + a8 + a9 + a10 + a11 + a12
Subject To
 head_hidden_0: a0 - h0_0 = 0
 rdr_addr_0: b0 - h0_0 = 0
 tail_sync_0_1: - a1 + t0_1 = 0
 tail_sync_0_0: - a0 + t0_0 = 0
 tail_sync_0_2: - a2 + t0_2 = 0
 tail_req_0: - b0 + t0_1 + t0_2 >= 0
 head_hidden_1: a0 - h1_0 = 0
 rdr_addr_1: b1 - h1_0 = 0
 tail_sync_1_3: - a3 + t1_3 = 0
 tail_sync_1_0: - a0 + t1_0 = 0
 tail_sync_1_4: - a4 + t1_4 = 0
 tail_req_1: - b1 + t1_3 + t1_4 >= 0
 head_hidden_2: a0 - h2_0 = 0
 rdr_addr_2: b2 - h2_0 = 0
 tail_sync_2_5: - a5 + t2_5 = 0
 tail_sync_2_0: - a0 + t2_0 = 0
 tail_sync_2_6: - a6 + t2_6 = 0
 tail_req_2: - b2 + t2_5 + t2_6 >= 0
 head_hidden_3: a0 - h3_0 = 0
 rdr_addr_3: b3 - h3_0 = 0
 tail_sync_3_0: - a0 + t3_0 = 0
 tail_sync_3_4: - a4 + t3_4 = 0
 tail_sync_3_6: - a6 + t3_6 = 0
 tail_req_3: - b3 + t3_4 + t3_6 >= 0
 head_hidden_4: a0 - h4_0 = 0
 rdr_addr_4: b4 - h4_0 = 0
 tail_sync_4_0: - a0 + t4_0 = 0
 tail_sync_4_7: - a7 + t4_7 = 0
 tail_req_4: - b4 + t4_7 >= 0
 head_hidden_5: a0 - h5_0 = 0
 rdr_addr_5: b5 - h5_0 = 0
 tail_sync_5_3: - a3 + t5_3 = 0
 tail_sync_5_0: - a0 + t5_0 = 0
 tail_sync_5_6: - a6 + t5_6 = 0
 tail_req_5: - b5 + t5_3 + t5_6 >= 0
 head_hidden_5: a1 - h5_1 = 0
 rdr_addr_5: b0 - h5_1 = 0
 tail_sync_5_1: - a1 + t5_1 = 0
 tail_sync_5_0: - a0 + t5_0 = 0
 tail_sync_5_2: - a2 + t5_2 = 0
 tail_req_5: - b0 + t5_0 + t5_2 >= 0
 head_hidden_6: a1 - h6_1 = 0
 rdr_addr_6: b6 - h6_1 = 0
 tail_sync_6_1: - a1 + t6_1 = 0
 tail_sync_6_2: - a2 + t6_2 = 0
 tail_sync_6_7: - a7 + t6_7 = 0
 tail_req_6: - b6 + t6_2 + t6_7 >= 0
 head_hidden_7: a1 - h7_1 = 0
 rdr_addr_7: b7 - h7_1 = 0
 tail_sync_7_1: - a1 + t7_1 = 0
 tail_sync_7_7: - a7 + t7_7 = 0
 tail_sync_7_6: - a6 + t7_6 = 0
 tail_req_7: - b7 + t7_7 + t7_6 >= 0
 head_hidden_8: a1 - h8_1 = 0
 rdr_addr_8: b8 - h8_1 = 0
 tail_sync_8_2: - a2 + t8_2 = 0
 tail_sync_8_8: - a8 + t8_8 = 0
 tail_sync_8_1: - a1 + t8_1 = 0
 tail_req_8: - b8 + t8_2 + t8_8 >= 0
 head_hidden_9: a1 - h9_1 = 0
 rdr_addr_9: b9 - h9_1 = 0
 tail_sync_9_5: - a5 + t9_5 = 0
 tail_sync_9_9: - a9 + t9_9 = 0
 tail_sync_9_1: - a1 + t9_1 = 0
 tail_req_9: - b9 + t9_5 + t9_9 >= 0
 head_hidden_10: a1 - h10_1 = 0
 rdr_addr_10: b10 - h10_1 = 0
 tail_sync_10_1: - a1 + t10_1 = 0
 tail_sync_10_3: - a3 + t10_3 = 0
 tail_sync_10_2: - a2 + t10_2 = 0
 tail_req_10: - b10 + t10_3 + t10_2 >= 0
 head_hidden_11: a1 - h11_1 = 0
 rdr_addr_11: b11 - h11_1 = 0
 tail_sync_11_1: - a1 + t11_1 = 0
 tail_sync_11_2: - a2 + t11_2 = 0
 tail_sync_11_4: - a4 + t11_4 = 0
 tail_req_11: - b11 + t11_2 + t11_4 >= 0
 head_hidden_12: a1 - h12_1 = 0
 rdr_addr_12: b12 - h12_1 = 0
 tail_sync_12_1: - a1 + t12_1 = 0
 tail_sync_12_10: - a10 + t12_10 = 0
 tail_sync_12_2: - a2 + t12_2 = 0
 tail_req_12: - b12 + t12_10 + t12_2 >= 0
 head_hidden_13: a1 - h13_1 = 0
 rdr_addr_13: b13 - h13_1 = 0
 tail_sync_13_10: - a10 + t13_10 = 0
 tail_sync_13_9: - a9 + t13_9 = 0
 tail_sync_13_1: - a1 + t13_1 = 0
 tail_req_13: - b13 + t13_10 + t13_9 >= 0
 head_hidden_14: a1 - h14_1 = 0
 rdr_addr_14: b14 - h14_1 = 0
 tail_sync_14_1: - a1 + t14_1 = 0
 tail_sync_14_9: - a9 + t14_9 = 0
 tail_sync_14_6: - a6 + t14_6 = 0
 tail_req_14: - b14 + t14_9 + t14_6 >= 0
 head_hidden_15: a1 - h15_1 = 0
 rdr_addr_15: b15 - h15_1 = 0
 tail_sync_15_1: - a1 + t15_1 = 0
 tail_sync_15_3: - a3 + t15_3 = 0
 tail_sync_15_8: - a8 + t15_8 = 0
 tail_req_15: - b15 + t15_3 + t15_8 >= 0
 head_hidden_16: a1 - h16_1 = 0
 rdr_addr_16: b16 - h16_1 = 0
 tail_sync_16_1: - a1 + t16_1 = 0
 tail_sync_16_2: - a2 + t16_2 = 0
 tail_sync_16_6: - a6 + t16_6 = 0
 tail_req_16: - b16 + t16_2 + t16_6 >= 0
 head_hidden_17: a1 - h17_1 = 0
 rdr_addr_17: b17 - h17_1 = 0
 tail_sync_17_1: - a1 + t17_1 = 0
 tail_sync_17_9: - a9 + t17_9 = 0
 tail_sync_17_8: - a8 + t17_8 = 0
 tail_req_17: - b17 + t17_9 + t17_8 >= 0
 head_hidden_18: a2 - h18_2 = 0
 rdr_addr_18: b18 - h18_2 = 0
 tail_sync_18_9: - a9 + t18_9 = 0
 tail_sync_18_2: - a2 + t18_2 = 0
 tail_sync_18_6: - a6 + t18_6 = 0
 tail_req_18: - b18 + t18_9 + t18_6 >= 0
 head_hidden_18: a2 - h18_2 = 0
 rdr_addr_18: b0 - h18_2 = 0
 tail_sync_18_1: - a1 + t18_1 = 0
 tail_sync_18_0: - a0 + t18_0 = 0
 tail_sync_18_2: - a2 + t18_2 = 0
 tail_req_18: - b0 + t18_1 + t18_0 >= 0
 head_hidden_18: a2 - h18_2 = 0
 rdr_addr_18: b6 - h18_2 = 0
 tail_sync_18_1: - a1 + t18_1 = 0
 tail_sync_18_2: - a2 + t18_2 = 0
 tail_sync_18_7: - a7 + t18_7 = 0
 tail_req_18: - b6 + t18_1 + t18_7 >= 0
 head_hidden_19: a2 - h19_2 = 0
 rdr_addr_19: b19 - h19_2 = 0
 tail_sync_19_5: - a5 + t19_5 = 0
 tail_sync_19_9: - a9 + t19_9 = 0
 tail_sync_19_2: - a2 + t19_2 = 0
 tail_req_19: - b19 + t19_5 + t19_9 >= 0
 head_hidden_20: a2 - h20_2 = 0
 rdr_addr_20: b20 - h20_2 = 0
 tail_sync_20_10: - a10 + t20_10 = 0
 tail_sync_20_9: - a9 + t20_9 = 0
 tail_sync_20_2: - a2 + t20_2 = 0
 tail_req_20: - b20 + t20_10 + t20_9 >= 0
 head_hidden_20: a2 - h20_2 = 0
 rdr_addr_20: b8 - h20_2 = 0
 tail_sync_20_2: - a2 + t20_2 = 0
 tail_sync_20_8: - a8 + t20_8 = 0
 tail_sync_20_1: - a1 + t20_1 = 0
 tail_req_20: - b8 + t20_8 + t20_1 >= 0
 head_hidden_21: a2 - h21_2 = 0
 rdr_addr_21: b21 - h21_2 = 0
 tail_sync_21_9: - a9 + t21_9 = 0
 tail_sync_21_3: - a3 + t21_3 = 0
 tail_sync_21_2: - a2 + t21_2 = 0
 tail_req_21: - b21 + t21_9 + t21_3 >= 0
 head_hidden_21: a2 - h21_2 = 0
 rdr_addr_21: b10 - h21_2 = 0
 tail_sync_21_1: - a1 + t21_1 = 0
 tail_sync_21_3: - a3 + t21_3 = 0
 tail_sync_21_2: - a2 + t21_2 = 0
 tail_req_21: - b10 + t21_1 + t21_3 >= 0
 head_hidden_21: a2 - h21_2 = 0
 rdr_addr_21: b11 - h21_2 = 0
 tail_sync_21_1: - a1 + t21_1 = 0
 tail_sync_21_2: - a2 + t21_2 = 0
 tail_sync_21_4: - a4 + t21_4 = 0
 tail_req_21: - b11 + t21_1 + t21_4 >= 0
 head_hidden_21: a2 - h21_2 = 0
 rdr_addr_21: b12 - h21_2 = 0
 tail_sync_21_1: - a1 + t21_1 = 0
 tail_sync_21_10: - a10 + t21_10 = 0
 tail_sync_21_2: - a2 + t21_2 = 0
 tail_req_21: - b12 + t21_1 + t21_10 >= 0
 head_hidden_21: a2 - h21_2 = 0
 rdr_addr_21: b16 - h21_2 = 0
 tail_sync_21_1: - a1 + t21_1 = 0
 tail_sync_21_2: - a2 + t21_2 = 0
 tail_sync_21_6: - a6 + t21_6 = 0
 tail_req_21: - b16 + t21_1 + t21_6 >= 0
 head_hidden_22: a2 - h22_2 = 0
 rdr_addr_22: b22 - h22_2 = 0
 tail_sync_22_9: - a9 + t22_9 = 0
 tail_sync_22_2: - a2 + t22_2 = 0
 tail_sync_22_4: - a4 + t22_4 = 0
 tail_req_22: - b22 + t22_9 + t22_4 >= 0
 head_hidden_23: a2 - h23_2 = 0
 rdr_addr_23: b23 - h23_2 = 0
 tail_sync_23_2: - a2 + t23_2 = 0
 tail_sync_23_9: - a9 + t23_9 = 0
 tail_sync_23_8: - a8 + t23_8 = 0
 tail_req_23: - b23 + t23_9 + t23_8 >= 0
 head_hidden_24: a3 - h24_3 = 0
 rdr_addr_24: b24 - h24_3 = 0
 tail_sync_24_11: - a11 + t24_11 = 0
 tail_sync_24_3: - a3 + t24_3 = 0
 tail_sync_24_8: - a8 + t24_8 = 0
 tail_req_24: - b24 + t24_11 + t24_8 >= 0
 head_hidden_24: a3 - h24_3 = 0
 rdr_addr_24: b1 - h24_3 = 0
 tail_sync_24_3: - a3 + t24_3 = 0
 tail_sync_24_0: - a0 + t24_0 = 0
 tail_sync_24_4: - a4 + t24_4 = 0
 tail_req_24: - b1 + t24_0 + t24_4 >= 0
 head_hidden_25: a3 - h25_3 = 0
 rdr_addr_25: b25 - h25_3 = 0
 tail_sync_25_3: - a3 + t25_3 = 0
 tail_sync_25_7: - a7 + t25_7 = 0
 tail_sync_25_4: - a4 + t25_4 = 0
 tail_req_25: - b25 + t25_7 + t25_4 >= 0
 head_hidden_26: a3 - h26_3 = 0
 rdr_addr_26: b26 - h26_3 = 0
 tail_sync_26_3: - a3 + t26_3 = 0
 tail_sync_26_8: - a8 + t26_8 = 0
 tail_sync_26_7: - a7 + t26_7 = 0
 tail_req_26: - b26 + t26_8 + t26_7 >= 0
 head_hidden_27: a3 - h27_3 = 0
 rdr_addr_27: b27 - h27_3 = 0
 tail_sync_27_11: - a11 + t27_11 = 0
 tail_sync_27_3: - a3 + t27_3 = 0
 tail_sync_27_6: - a6 + t27_6 = 0
 tail_req_27: - b27 + t27_11 + t27_6 >= 0
 head_hidden_28: a3 - h28_3 = 0
 rdr_addr_28: b28 - h28_3 = 0
 tail_sync_28_3: - a3 + t28_3 = 0
 tail_sync_28_4: - a4 + t28_4 = 0
 tail_sync_28_6: - a6 + t28_6 = 0
 tail_req_28: - b28 + t28_4 + t28_6 >= 0
 head_hidden_28: a3 - h28_3 = 0
 rdr_addr_28: b21 - h28_3 = 0
 tail_sync_28_9: - a9 + t28_9 = 0
 tail_sync_28_3: - a3 + t28_3 = 0
 tail_sync_28_2: - a2 + t28_2 = 0
 tail_req_28: - b21 + t28_9 + t28_2 >= 0
 head_hidden_29: a3 - h29_3 = 0
 rdr_addr_29: b29 - h29_3 = 0
 tail_sync_29_3: - a3 + t29_3 = 0
 tail_sync_29_7: - a7 + t29_7 = 0
 tail_sync_29_6: - a6 + t29_6 = 0
 tail_req_29: - b29 + t29_7 + t29_6 >= 0
 head_hidden_29: a3 - h29_3 = 0
 rdr_addr_29: b10 - h29_3 = 0
 tail_sync_29_1: - a1 + t29_1 = 0
 tail_sync_29_3: - a3 + t29_3 = 0
 tail_sync_29_2: - a2 + t29_2 = 0
 tail_req_29: - b10 + t29_1 + t29_2 >= 0
 head_hidden_30: a3 - h30_3 = 0
 rdr_addr_30: b30 - h30_3 = 0
 tail_sync_30_12: - a12 + t30_12 = 0
 tail_sync_30_3: - a3 + t30_3 = 0
 tail_sync_30_6: - a6 + t30_6 = 0
 tail_req_30: - b30 + t30_12 + t30_6 >= 0
 head_hidden_30: a3 - h30_3 = 0
 rdr_addr_30: b15 - h30_3 = 0
 tail_sync_30_1: - a1 + t30_1 = 0
 tail_sync_30_3: - a3 + t30_3 = 0
 tail_sync_30_8: - a8 + t30_8 = 0
 tail_req_30: - b15 + t30_1 + t30_8 >= 0
 head_hidden_30: a3 - h30_3 = 0
 rdr_addr_30: b5 - h30_3 = 0
 tail_sync_30_3: - a3 + t30_3 = 0
 tail_sync_30_0: - a0 + t30_0 = 0
 tail_sync_30_6: - a6 + t30_6 = 0
 tail_req_30: - b5 + t30_0 + t30_6 >= 0
 head_hidden_30: a4 - h30_4 = 0
 rdr_addr_30: b1 - h30_4 = 0
 tail_sync_30_3: - a3 + t30_3 = 0
 tail_sync_30_0: - a0 + t30_0 = 0
 tail_sync_30_4: - a4 + t30_4 = 0
 tail_req_30: - b1 + t30_3 + t30_0 >= 0
 head_hidden_30: a4 - h30_4 = 0
 rdr_addr_30: b25 - h30_4 = 0
 tail_sync_30_3: - a3 + t30_3 = 0
 tail_sync_30_7: - a7 + t30_7 = 0
 tail_sync_30_4: - a4 + t30_4 = 0
 tail_req_30: - b25 + t30_3 + t30_7 >= 0
 head_hidden_30: a4 - h30_4 = 0
 rdr_addr_30: b28 - h30_4 = 0
 tail_sync_30_3: - a3 + t30_3 = 0
 tail_sync_30_4: - a4 + t30_4 = 0
 tail_sync_30_6: - a6 + t30_6 = 0
 tail_req_30: - b28 + t30_3 + t30_6 >= 0
 head_hidden_31: a4 - h31_4 = 0
 rdr_addr_31: b31 - h31_4 = 0
 tail_sync_31_8: - a8 + t31_8 = 0
 tail_sync_31_4: - a4 + t31_4 = 0
 tail_sync_31_12: - a12 + t31_12 = 0
 tail_req_31: - b31 + t31_8 + t31_12 >= 0
 head_hidden_31: a4 - h31_4 = 0
 rdr_addr_31: b11 - h31_4 = 0
 tail_sync_31_1: - a1 + t31_1 = 0
 tail_sync_31_2: - a2 + t31_2 = 0
 tail_sync_31_4: - a4 + t31_4 = 0
 tail_req_31: - b11 + t31_1 + t31_2 >= 0
 head_hidden_31: a4 - h31_4 = 0
 rdr_addr_31: b3 - h31_4 = 0
 tail_sync_31_0: - a0 + t31_0 = 0
 tail_sync_31_4: - a4 + t31_4 = 0
 tail_sync_31_6: - a6 + t31_6 = 0
 tail_req_31: - b3 + t31_0 + t31_6 >= 0
 head_hidden_31: a4 - h31_4 = 0
 rdr_addr_31: b22 - h31_4 = 0
 tail_sync_31_9: - a9 + t31_9 = 0
 tail_sync_31_2: - a2 + t31_2 = 0
 tail_sync_31_4: - a4 + t31_4 = 0
 tail_req_31: - b22 + t31_9 + t31_2 >= 0
 head_hidden_32: a4 - h32_4 = 0
 rdr_addr_32: b32 - h32_4 = 0
 tail_sync_32_7: - a7 + t32_7 = 0
 tail_sync_32_4: - a4 + t32_4 = 0
 tail_sync_32_6: - a6 + t32_6 = 0
 tail_req_32: - b32 + t32_7 + t32_6 >= 0
 head_hidden_32: a5 - h32_5 = 0
 rdr_addr_32: b2 - h32_5 = 0
 tail_sync_32_5: - a5 + t32_5 = 0
 tail_sync_32_0: - a0 + t32_0 = 0
 tail_sync_32_6: - a6 + t32_6 = 0
 tail_req_32: - b2 + t32_0 + t32_6 >= 0
 head_hidden_33: a5 - h33_5 = 0
 rdr_addr_33: b33 - h33_5 = 0
 tail_sync_33_5: - a5 + t33_5 = 0
 tail_sync_33_7: - a7 + t33_7 = 0
 tail_sync_33_6: - a6 + t33_6 = 0
 tail_req_33: - b33 + t33_7 + t33_6 >= 0
 head_hidden_34: a5 - h34_5 = 0
 rdr_addr_34: b34 - h34_5 = 0
 tail_sync_34_5: - a5 + t34_5 = 0
 tail_sync_34_12: - a12 + t34_12 = 0
 tail_sync_34_6: - a6 + t34_6 = 0
 tail_req_34: - b34 + t34_12 + t34_6 >= 0
 head_hidden_34: a5 - h34_5 = 0
 rdr_addr_34: b19 - h34_5 = 0
 tail_sync_34_5: - a5 + t34_5 = 0
 tail_sync_34_9: - a9 + t34_9 = 0
 tail_sync_34_2: - a2 + t34_2 = 0
 tail_req_34: - b19 + t34_9 + t34_2 >= 0
 head_hidden_35: a5 - h35_5 = 0
 rdr_addr_35: b35 - h35_5 = 0
 tail_sync_35_5: - a5 + t35_5 = 0
 tail_sync_35_11: - a11 + t35_11 = 0
 tail_sync_35_6: - a6 + t35_6 = 0
 tail_req_35: - b35 + t35_11 + t35_6 >= 0
 head_hidden_36: a5 - h36_5 = 0
 rdr_addr_36: b36 - h36_5 = 0
 tail_sync_36_5: - a5 + t36_5 = 0
 tail_sync_36_8: - a8 + t36_8 = 0
 tail_sync_36_7: - a7 + t36_7 = 0
 tail_req_36: - b36 + t36_8 + t36_7 >= 0
 head_hidden_36: a5 - h36_5 = 0
 rdr_addr_36: b9 - h36_5 = 0
 tail_sync_36_5: - a5 + t36_5 = 0
 tail_sync_36_9: - a9 + t36_9 = 0
 tail_sync_36_1: - a1 + t36_1 = 0
 tail_req_36: - b9 + t36_9 + t36_1 >= 0
 head_hidden_37: a5 - h37_5 = 0
 rdr_addr_37: b37 - h37_5 = 0
 tail_sync_37_5: - a5 + t37_5 = 0
 tail_sync_37_11: - a11 + t37_11 = 0
 tail_sync_37_8: - a8 + t37_8 = 0
 tail_req_37: - b37 + t37_11 + t37_8 >= 0
 head_hidden_37: a6 - h37_6 = 0
 rdr_addr_37: b18 - h37_6 = 0
 tail_sync_37_9: - a9 + t37_9 = 0
 tail_sync_37_2: - a2 + t37_2 = 0
 tail_sync_37_6: - a6 + t37_6 = 0
 tail_req_37: - b18 + t37_9 + t37_2 >= 0
 head_hidden_38: a6 - h38_6 = 0
 rdr_addr_38: b38 - h38_6 = 0
 tail_sync_38_8: - a8 + t38_8 = 0
 tail_sync_38_6: - a6 + t38_6 = 0
 tail_req_38: - b38 + t38_8 >= 0
 head_hidden_38: a6 - h38_6 = 0
 rdr_addr_38: b2 - h38_6 = 0
 tail_sync_38_5: - a5 + t38_5 = 0
 tail_sync_38_0: - a0 + t38_0 = 0
 tail_sync_38_6: - a6 + t38_6 = 0
 tail_req_38: - b2 + t38_5 + t38_0 >= 0
 head_hidden_38: a6 - h38_6 = 0
 rdr_addr_38: b33 - h38_6 = 0
 tail_sync_38_5: - a5 + t38_5 = 0
 tail_sync_38_7: - a7 + t38_7 = 0
 tail_sync_38_6: - a6 + t38_6 = 0
 tail_req_38: - b33 + t38_5 + t38_7 >= 0
 head_hidden_38: a6 - h38_6 = 0
 rdr_addr_38: b27 - h38_6 = 0
 tail_sync_38_11: - a11 + t38_11 = 0
 tail_sync_38_3: - a3 + t38_3 = 0
 tail_sync_38_6: - a6 + t38_6 = 0
 tail_req_38: - b27 + t38_11 + t38_3 >= 0
 head_hidden_39: a6 - h39_6 = 0
 rdr_addr_39: b39 - h39_6 = 0
 tail_sync_39_11: - a11 + t39_11 = 0
 tail_sync_39_7: - a7 + t39_7 = 0
 tail_sync_39_6: - a6 + t39_6 = 0
 tail_req_39: - b39 + t39_11 + t39_7 >= 0
 head_hidden_39: a6 - h39_6 = 0
 rdr_addr_39: b28 - h39_6 = 0
 tail_sync_39_3: - a3 + t39_3 = 0
 tail_sync_39_4: - a4 + t39_4 = 0
 tail_sync_39_6: - a6 + t39_6 = 0
 tail_req_39: - b28 + t39_3 + t39_4 >= 0
 head_hidden_39: a6 - h39_6 = 0
 rdr_addr_39: b34 - h39_6 = 0
 tail_sync_39_5: - a5 + t39_5 = 0
 tail_sync_39_12: - a12 + t39_12 = 0
 tail_sync_39_6: - a6 + t39_6 = 0
 tail_req_39: - b34 + t39_5 + t39_12 >= 0
 head_hidden_40: a6 - h40_6 = 0
 rdr_addr_40: b40 - h40_6 = 0
 tail_sync_40_12: - a12 + t40_12 = 0
 tail_sync_40_7: - a7 + t40_7 = 0
 tail_sync_40_6: - a6 + t40_6 = 0
 tail_req_40: - b40 + t40_12 + t40_7 >= 0
 head_hidden_41: a6 - h41_6 = 0
 rdr_addr_41: b41 - h41_6 = 0
 tail_sync_41_12: - a12 + t41_12 = 0
 tail_sync_41_11: - a11 + t41_11 = 0
 tail_sync_41_6: - a6 + t41_6 = 0
 tail_req_41: - b41 + t41_12 + t41_11 >= 0
 head_hidden_41: a6 - h41_6 = 0
 rdr_addr_41: b7 - h41_6 = 0
 tail_sync_41_1: - a1 + t41_1 = 0
 tail_sync_41_7: - a7 + t41_7 = 0
 tail_sync_41_6: - a6 + t41_6 = 0
 tail_req_41: - b7 + t41_1 + t41_7 >= 0
 head_hidden_41: a6 - h41_6 = 0
 rdr_addr_41: b35 - h41_6 = 0
 tail_sync_41_5: - a5 + t41_5 = 0
 tail_sync_41_11: - a11 + t41_11 = 0
 tail_sync_41_6: - a6 + t41_6 = 0
 tail_req_41: - b35 + t41_5 + t41_11 >= 0
 head_hidden_41: a6 - h41_6 = 0
 rdr_addr_41: b29 - h41_6 = 0
 tail_sync_41_3: - a3 + t41_3 = 0
 tail_sync_41_7: - a7 + t41_7 = 0
 tail_sync_41_6: - a6 + t41_6 = 0
 tail_req_41: - b29 + t41_3 + t41_7 >= 0
 head_hidden_41: a6 - h41_6 = 0
 rdr_addr_41: b30 - h41_6 = 0
 tail_sync_41_12: - a12 + t41_12 = 0
 tail_sync_41_3: - a3 + t41_3 = 0
 tail_sync_41_6: - a6 + t41_6 = 0
 tail_req_41: - b30 + t41_12 + t41_3 >= 0
 head_hidden_41: a6 - h41_6 = 0
 rdr_addr_41: b3 - h41_6 = 0
 tail_sync_41_0: - a0 + t41_0 = 0
 tail_sync_41_4: - a4 + t41_4 = 0
 tail_sync_41_6: - a6 + t41_6 = 0
 tail_req_41: - b3 + t41_0 + t41_4 >= 0
 head_hidden_41: a6 - h41_6 = 0
 rdr_addr_41: b14 - h41_6 = 0
 tail_sync_41_1: - a1 + t41_1 = 0
 tail_sync_41_9: - a9 + t41_9 = 0
 tail_sync_41_6: - a6 + t41_6 = 0
 tail_req_41: - b14 + t41_1 + t41_9 >= 0
 head_hidden_41: a6 - h41_6 = 0
 rdr_addr_41: b16 - h41_6 = 0
 tail_sync_41_1: - a1 + t41_1 = 0
 tail_sync_41_2: - a2 + t41_2 = 0
 tail_sync_41_6: - a6 + t41_6 = 0
 tail_req_41: - b16 + t41_1 + t41_2 >= 0
 head_hidden_41: a6 - h41_6 = 0
 rdr_addr_41: b32 - h41_6 = 0
 tail_sync_41_7: - a7 + t41_7 = 0
 tail_sync_41_4: - a4 + t41_4 = 0
 tail_sync_41_6: - a6 + t41_6 = 0
 tail_req_41: - b32 + t41_7 + t41_4 >= 0
 head_hidden_41: a6 - h41_6 = 0
 rdr_addr_41: b5 - h41_6 = 0
 tail_sync_41_3: - a3 + t41_3 = 0
 tail_sync_41_0: - a0 + t41_0 = 0
 tail_sync_41_6: - a6 + t41_6 = 0
 tail_req_41: - b5 + t41_3 + t41_0 >= 0
 head_hidden_41: a7 - h41_7 = 0
 rdr_addr_41: b25 - h41_7 = 0
 tail_sync_41_3: - a3 + t41_3 = 0
 tail_sync_41_7: - a7 + t41_7 = 0
 tail_sync_41_4: - a4 + t41_4 = 0
 tail_req_41: - b25 + t41_3 + t41_4 >= 0
 head_hidden_41: a7 - h41_7 = 0
 rdr_addr_41: b33 - h41_7 = 0
 tail_sync_41_5: - a5 + t41_5 = 0
 tail_sync_41_7: - a7 + t41_7 = 0
 tail_sync_41_6: - a6 + t41_6 = 0
 tail_req_41: - b33 + t41_5 + t41_6 >= 0
 head_hidden_42: a7 - h42_7 = 0
 rdr_addr_42: b42 - h42_7 = 0
 tail_sync_42_11: - a11 + t42_11 = 0
 tail_sync_42_8: - a8 + t42_8 = 0
 tail_sync_42_7: - a7 + t42_7 = 0
 tail_req_42: - b42 + t42_11 + t42_8 >= 0
 head_hidden_42: a7 - h42_7 = 0
 rdr_addr_42: b6 - h42_7 = 0
 tail_sync_42_1: - a1 + t42_1 = 0
 tail_sync_42_2: - a2 + t42_2 = 0
 tail_sync_42_7: - a7 + t42_7 = 0
 tail_req_42: - b6 + t42_1 + t42_2 >= 0
 head_hidden_42: a7 - h42_7 = 0
 rdr_addr_42: b26 - h42_7 = 0
 tail_sync_42_3: - a3 + t42_3 = 0
 tail_sync_42_8: - a8 + t42_8 = 0
 tail_sync_42_7: - a7 + t42_7 = 0
 tail_req_42: - b26 + t42_3 + t42_8 >= 0
 head_hidden_42: a7 - h42_7 = 0
 rdr_addr_42: b39 - h42_7 = 0
 tail_sync_42_11: - a11 + t42_11 = 0
 tail_sync_42_7: - a7 + t42_7 = 0
 tail_sync_42_6: - a6 + t42_6 = 0
 tail_req_42: - b39 + t42_11 + t42_6 >= 0
 head_hidden_42: a7 - h42_7 = 0
 rdr_addr_42: b40 - h42_7 = 0
 tail_sync_42_12: - a12 + t42_12 = 0
 tail_sync_42_7: - a7 + t42_7 = 0
 tail_sync_42_6: - a6 + t42_6 = 0
 tail_req_42: - b40 + t42_12 + t42_6 >= 0
 head_hidden_42: a7 - h42_7 = 0
 rdr_addr_42: b7 - h42_7 = 0
 tail_sync_42_1: - a1 + t42_1 = 0
 tail_sync_42_7: - a7 + t42_7 = 0
 tail_sync_42_6: - a6 + t42_6 = 0
 tail_req_42: - b7 + t42_1 + t42_6 >= 0
 head_hidden_42: a7 - h42_7 = 0
 rdr_addr_42: b36 - h42_7 = 0
 tail_sync_42_5: - a5 + t42_5 = 0
 tail_sync_42_8: - a8 + t42_8 = 0
 tail_sync_42_7: - a7 + t42_7 = 0
 tail_req_42: - b36 + t42_5 + t42_8 >= 0
 head_hidden_42: a7 - h42_7 = 0
 rdr_addr_42: b29 - h42_7 = 0
 tail_sync_42_3: - a3 + t42_3 = 0
 tail_sync_42_7: - a7 + t42_7 = 0
 tail_sync_42_6: - a6 + t42_6 = 0
 tail_req_42: - b29 + t42_3 + t42_6 >= 0
 head_hidden_42: a7 - h42_7 = 0
 rdr_addr_42: b4 - h42_7 = 0
 tail_sync_42_0: - a0 + t42_0 = 0
 tail_sync_42_7: - a7 + t42_7 = 0
 tail_req_42: - b4 + t42_0 >= 0
 head_hidden_42: a7 - h42_7 = 0
 rdr_addr_42: b32 - h42_7 = 0
 tail_sync_42_7: - a7 + t42_7 = 0
 tail_sync_42_4: - a4 + t42_4 = 0
 tail_sync_42_6: - a6 + t42_6 = 0
 tail_req_42: - b32 + t42_4 + t42_6 >= 0
 head_hidden_42: a8 - h42_8 = 0
 rdr_addr_42: b24 - h42_8 = 0
 tail_sync_42_11: - a11 + t42_11 = 0
 tail_sync_42_3: - a3 + t42_3 = 0
 tail_sync_42_8: - a8 + t42_8 = 0
 tail_req_42: - b24 + t42_11 + t42_3 >= 0
 head_hidden_42: a8 - h42_8 = 0
 rdr_addr_42: b38 - h42_8 = 0
 tail_sync_42_8: - a8 + t42_8 = 0
 tail_sync_42_6: - a6 + t42_6 = 0
 tail_req_42: - b38 + t42_6 >= 0
 head_hidden_42: a8 - h42_8 = 0
 rdr_addr_42: b42 - h42_8 = 0
 tail_sync_42_11: - a11 + t42_11 = 0
 tail_sync_42_8: - a8 + t42_8 = 0
 tail_sync_42_7: - a7 + t42_7 = 0
 tail_req_42: - b42 + t42_11 + t42_7 >= 0
 head_hidden_42: a8 - h42_8 = 0
 rdr_addr_42: b26 - h42_8 = 0
 tail_sync_42_3: - a3 + t42_3 = 0
 tail_sync_42_8: - a8 + t42_8 = 0
 tail_sync_42_7: - a7 + t42_7 = 0
 tail_req_42: - b26 + t42_3 + t42_7 >= 0
 head_hidden_42: a8 - h42_8 = 0
 rdr_addr_42: b8 - h42_8 = 0
 tail_sync_42_2: - a2 + t42_2 = 0
 tail_sync_42_8: - a8 + t42_8 = 0
 tail_sync_42_1: - a1 + t42_1 = 0
 tail_req_42: - b8 + t42_2 + t42_1 >= 0
 head_hidden_42: a8 - h42_8 = 0
 rdr_addr_42: b31 - h42_8 = 0
 tail_sync_42_8: - a8 + t42_8 = 0
 tail_sync_42_4: - a4 + t42_4 = 0
 tail_sync_42_12: - a12 + t42_12 = 0
 tail_req_42: - b31 + t42_4 + t42_12 >= 0
 head_hidden_42: a8 - h42_8 = 0
 rdr_addr_42: b36 - h42_8 = 0
 tail_sync_42_5: - a5 + t42_5 = 0
 tail_sync_42_8: - a8 + t42_8 = 0
 tail_sync_42_7: - a7 + t42_7 = 0
 tail_req_42: - b36 + t42_5 + t42_7 >= 0
 head_hidden_42: a8 - h42_8 = 0
 rdr_addr_42: b37 - h42_8 = 0
 tail_sync_42_5: - a5 + t42_5 = 0
 tail_sync_42_11: - a11 + t42_11 = 0
 tail_sync_42_8: - a8 + t42_8 = 0
 tail_req_42: - b37 + t42_5 + t42_11 >= 0
 head_hidden_42: a8 - h42_8 = 0
 rdr_addr_42: b15 - h42_8 = 0
 tail_sync_42_1: - a1 + t42_1 = 0
 tail_sync_42_3: - a3 + t42_3 = 0
 tail_sync_42_8: - a8 + t42_8 = 0
 tail_req_42: - b15 + t42_1 + t42_3 >= 0
 head_hidden_42: a8 - h42_8 = 0
 rdr_addr_42: b23 - h42_8 = 0
 tail_sync_42_2: - a2 + t42_2 = 0
 tail_sync_42_9: - a9 + t42_9 = 0
 tail_sync_42_8: - a8 + t42_8 = 0
 tail_req_42: - b23 + t42_2 + t42_9 >= 0
 head_hidden_42: a8 - h42_8 = 0
 rdr_addr_42: b17 - h42_8 = 0
 tail_sync_42_1: - a1 + t42_1 = 0
 tail_sync_42_9: - a9 + t42_9 = 0
 tail_sync_42_8: - a8 + t42_8 = 0
 tail_req_42: - b17 + t42_1 + t42_9 >= 0
 head_hidden_42: a9 - h42_9 = 0
 rdr_addr_42: b18 - h42_9 = 0
 tail_sync_42_9: - a9 + t42_9 = 0
 tail_sync_42_2: - a2 + t42_2 = 0
 tail_sync_42_6: - a6 + t42_6 = 0
 tail_req_42: - b18 + t42_2 + t42_6 >= 0
 head_hidden_42: a9 - h42_9 = 0
 rdr_addr_42: b19 - h42_9 = 0
 tail_sync_42_5: - a5 + t42_5 = 0
 tail_sync_42_9: - a9 + t42_9 = 0
 tail_sync_42_2: - a2 + t42_2 = 0
 tail_req_42: - b19 + t42_5 + t42_2 >= 0
 head_hidden_42: a9 - h42_9 = 0
 rdr_addr_42: b20 - h42_9 = 0
 tail_sync_42_10: - a10 + t42_10 = 0
 tail_sync_42_9: - a9 + t42_9 = 0
 tail_sync_42_2: - a2 + t42_2 = 0
 tail_req_42: - b20 + t42_10 + t42_2 >= 0
 head_hidden_42: a9 - h42_9 = 0
 rdr_addr_42: b21 - h42_9 = 0
 tail_sync_42_9: - a9 + t42_9 = 0
 tail_sync_42_3: - a3 + t42_3 = 0
 tail_sync_42_2: - a2 + t42_2 = 0
 tail_req_42: - b21 + t42_3 + t42_2 >= 0
 head_hidden_42: a9 - h42_9 = 0
 rdr_addr_42: b9 - h42_9 = 0
 tail_sync_42_5: - a5 + t42_5 = 0
 tail_sync_42_9: - a9 + t42_9 = 0
 tail_sync_42_1: - a1 + t42_1 = 0
 tail_req_42: - b9 + t42_5 + t42_1 >= 0
 head_hidden_42: a9 - h42_9 = 0
 rdr_addr_42: b13 - h42_9 = 0
 tail_sync_42_10: - a10 + t42_10 = 0
 tail_sync_42_9: - a9 + t42_9 = 0
 tail_sync_42_1: - a1 + t42_1 = 0
 tail_req_42: - b13 + t42_10 + t42_1 >= 0
 head_hidden_42: a9 - h42_9 = 0
 rdr_addr_42: b14 - h42_9 = 0
 tail_sync_42_1: - a1 + t42_1 = 0
 tail_sync_42_9: - a9 + t42_9 = 0
 tail_sync_42_6: - a6 + t42_6 = 0
 tail_req_42: - b14 + t42_1 + t42_6 >= 0
 head_hidden_42: a9 - h42_9 = 0
 rdr_addr_42: b22 - h42_9 = 0
 tail_sync_42_9: - a9 + t42_9 = 0
 tail_sync_42_2: - a2 + t42_2 = 0
 tail_sync_42_4: - a4 + t42_4 = 0
 tail_req_42: - b22 + t42_2 + t42_4 >= 0
 head_hidden_42: a9 - h42_9 = 0
 rdr_addr_42: b23 - h42_9 = 0
 tail_sync_42_2: - a2 + t42_2 = 0
 tail_sync_42_9: - a9 + t42_9 = 0
 tail_sync_42_8: - a8 + t42_8 = 0
 tail_req_42: - b23 + t42_2 + t42_8 >= 0
 head_hidden_42: a9 - h42_9 = 0
 rdr_addr_42: b17 - h42_9 = 0
 tail_sync_42_1: - a1 + t42_1 = 0
 tail_sync_42_9: - a9 + t42_9 = 0
 tail_sync_42_8: - a8 + t42_8 = 0
 tail_req_42: - b17 + t42_1 + t42_8 >= 0
 head_hidden_42: a10 - h42_10 = 0
 rdr_addr_42: b20 - h42_10 = 0
 tail_sync_42_10: - a10 + t42_10 = 0
 tail_sync_42_9: - a9 + t42_9 = 0
 tail_sync_42_2: - a2 + t42_2 = 0
 tail_req_42: - b20 + t42_9 + t42_2 >= 0
 head_hidden_42: a10 - h42_10 = 0
 rdr_addr_42: b12 - h42_10 = 0
 tail_sync_42_1: - a1 + t42_1 = 0
 tail_sync_42_10: - a10 + t42_10 = 0
 tail_sync_42_2: - a2 + t42_2 = 0
 tail_req_42: - b12 + t42_1 + t42_2 >= 0
 head_hidden_42: a10 - h42_10 = 0
 rdr_addr_42: b13 - h42_10 = 0
 tail_sync_42_10: - a10 + t42_10 = 0
 tail_sync_42_9: - a9 + t42_9 = 0
 tail_sync_42_1: - a1 + t42_1 = 0
 tail_req_42: - b13 + t42_9 + t42_1 >= 0
 head_hidden_42: a11 - h42_11 = 0
 rdr_addr_42: b24 - h42_11 = 0
 tail_sync_42_11: - a11 + t42_11 = 0
 tail_sync_42_3: - a3 + t42_3 = 0
 tail_sync_42_8: - a8 + t42_8 = 0
 tail_req_42: - b24 + t42_3 + t42_8 >= 0
 head_hidden_42: a11 - h42_11 = 0
 rdr_addr_42: b42 - h42_11 = 0
 tail_sync_42_11: - a11 + t42_11 = 0
 tail_sync_42_8: - a8 + t42_8 = 0
 tail_sync_42_7: - a7 + t42_7 = 0
 tail_req_42: - b42 + t42_8 + t42_7 >= 0
 head_hidden_42: a11 - h42_11 = 0
 rdr_addr_42: b27 - h42_11 = 0
 tail_sync_42_11: - a11 + t42_11 = 0
 tail_sync_42_3: - a3 + t42_3 = 0
 tail_sync_42_6: - a6 + t42_6 = 0
 tail_req_42: - b27 + t42_3 + t42_6 >= 0
 head_hidden_42: a11 - h42_11 = 0
 rdr_addr_42: b39 - h42_11 = 0
 tail_sync_42_11: - a11 + t42_11 = 0
 tail_sync_42_7: - a7 + t42_7 = 0
 tail_sync_42_6: - a6 + t42_6 = 0
 tail_req_42: - b39 + t42_7 + t42_6 >= 0
 head_hidden_42: a11 - h42_11 = 0
 rdr_addr_42: b41 - h42_11 = 0
 tail_sync_42_12: - a12 + t42_12 = 0
 tail_sync_42_11: - a11 + t42_11 = 0
 tail_sync_42_6: - a6 + t42_6 = 0
 tail_req_42: - b41 + t42_12 + t42_6 >= 0
 head_hidden_42: a11 - h42_11 = 0
 rdr_addr_42: b35 - h42_11 = 0
 tail_sync_42_5: - a5 + t42_5 = 0
 tail_sync_42_11: - a11 + t42_11 = 0
 tail_sync_42_6: - a6 + t42_6 = 0
 tail_req_42: - b35 + t42_5 + t42_6 >= 0
 head_hidden_42: a11 - h42_11 = 0
 rdr_addr_42: b37 - h42_11 = 0
 tail_sync_42_5: - a5 + t42_5 = 0
 tail_sync_42_11: - a11 + t42_11 = 0
 tail_sync_42_8: - a8 + t42_8 = 0
 tail_req_42: - b37 + t42_5 + t42_8 >= 0
 head_hidden_42: a12 - h42_12 = 0
 rdr_addr_42: b34 - h42_12 = 0
 tail_sync_42_5: - a5 + t42_5 = 0
 tail_sync_42_12: - a12 + t42_12 = 0
 tail_sync_42_6: - a6 + t42_6 = 0
 tail_req_42: - b34 + t42_5 + t42_6 >= 0
 head_hidden_42: a12 - h42_12 = 0
 rdr_addr_42: b40 - h42_12 = 0
 tail_sync_42_12: - a12 + t42_12 = 0
 tail_sync_42_7: - a7 + t42_7 = 0
 tail_sync_42_6: - a6 + t42_6 = 0
 tail_req_42: - b40 + t42_7 + t42_6 >= 0
 head_hidden_42: a12 - h42_12 = 0
 rdr_addr_42: b41 - h42_12 = 0
 tail_sync_42_12: - a12 + t42_12 = 0
 tail_sync_42_11: - a11 + t42_11 = 0
 tail_sync_42_6: - a6 + t42_6 = 0
 tail_req_42: - b41 + t42_11 + t42_6 >= 0
 head_hidden_42: a12 - h42_12 = 0
 rdr_addr_42: b31 - h42_12 = 0
 tail_sync_42_8: - a8 + t42_8 = 0
 tail_sync_42_4: - a4 + t42_4 = 0
 tail_sync_42_12: - a12 + t42_12 = 0
 tail_req_42: - b31 + t42_8 + t42_4 >= 0
 head_hidden_42: a12 - h42_12 = 0
 rdr_addr_42: b30 - h42_12 = 0
 tail_sync_42_12: - a12 + t42_12 = 0
 tail_sync_42_3: - a3 + t42_3 = 0
 tail_sync_42_6: - a6 + t42_6 = 0
 tail_req_42: - b30 + t42_3 + t42_6 >= 0
Bounds
 a0 = 1
Binaries
 a0 b0 h0_0 a1 t0_1 t0_0 a2 t0_2 b1 h1_0 a3 t1_3 t1_0 a4 t1_4 b2 h2_0 a5
 t2_5 t2_0 a6 t2_6 b3 h3_0 t3_0 t3_4 t3_6 b4 h4_0 t4_0 a7 t4_7 b5 h5_0 t5_3
 t5_0 t5_6 h5_1 t5_1 t5_0 t5_2 b6 h6_1 t6_1 t6_2 t6_7 b7 h7_1 t7_1 t7_7
 t7_6 b8 h8_1 t8_2 a8 t8_8 t8_1 b9 h9_1 t9_5 a9 t9_9 t9_1 b10 h10_1 t10_1
 t10_3 t10_2 b11 h11_1 t11_1 t11_2 t11_4 b12 h12_1 t12_1 a10 t12_10 t12_2
 b13 h13_1 t13_10 t13_9 t13_1 b14 h14_1 t14_1 t14_9 t14_6 b15 h15_1 t15_1
 t15_3 t15_8 b16 h16_1 t16_1 t16_2 t16_6 b17 h17_1 t17_1 t17_9 t17_8 b18
 h18_2 t18_9 t18_2 t18_6 h18_2 t18_1 t18_0 t18_2 h18_2 t18_1 t18_2 t18_7
 b19 h19_2 t19_5 t19_9 t19_2 b20 h20_2 t20_10 t20_9 t20_2 h20_2 t20_2 t20_8
 t20_1 b21 h21_2 t21_9 t21_3 t21_2 h21_2 t21_1 t21_3 t21_2 h21_2 t21_1
 t21_2 t21_4 h21_2 t21_1 t21_10 t21_2 h21_2 t21_1 t21_2 t21_6 b22 h22_2
 t22_9 t22_2 t22_4 b23 h23_2 t23_2 t23_9 t23_8 b24 h24_3 a11 t24_11 t24_3
 t24_8 h24_3 t24_3 t24_0 t24_4 b25 h25_3 t25_3 t25_7 t25_4 b26 h26_3 t26_3
 t26_8 t26_7 b27 h27_3 t27_11 t27_3 t27_6 b28 h28_3 t28_3 t28_4 t28_6 h28_3
 t28_9 t28_3 t28_2 b29 h29_3 t29_3 t29_7 t29_6 h29_3 t29_1 t29_3 t29_2 b30
 h30_3 a12 t30_12 t30_3 t30_6 h30_3 t30_1 t30_3 t30_8 h30_3 t30_3 t30_0
 t30_6 h30_4 t30_3 t30_0 t30_4 h30_4 t30_3 t30_7 t30_4 h30_4 t30_3 t30_4
 t30_6 b31 h31_4 t31_8 t31_4 t31_12 h31_4 t31_1 t31_2 t31_4 h31_4 t31_0
 t31_4 t31_6 h31_4 t31_9 t31_2 t31_4 b32 h32_4 t32_7 t32_4 t32_6 h32_5
 t32_5 t32_0 t32_6 b33 h33_5 t33_5 t33_7 t33_6 b34 h34_5 t34_5 t34_12 t34_6
 h34_5 t34_5 t34_9 t34_2 b35 h35_5 t35_5 t35_11 t35_6 b36 h36_5 t36_5 t36_8
 t36_7 h36_5 t36_5 t36_9 t36_1 b37 h37_5 t37_5 t37_11 t37_8 h37_6 t37_9
 t37_2 t37_6 b38 h38_6 t38_8 t38_6 h38_6 t38_5 t38_0 t38_6 h38_6 t38_5
 t38_7 t38_6 h38_6 t38_11 t38_3 t38_6 b39 h39_6 t39_11 t39_7 t39_6 h39_6
 t39_3 t39_4 t39_6 h39_6 t39_5 t39_12 t39_6 b40 h40_6 t40_12 t40_7 t40_6
 b41 h41_6 t41_12 t41_11 t41_6 h41_6 t41_1 t41_7 t41_6 h41_6 t41_5 t41_11
 t41_6 h41_6 t41_3 t41_7 t41_6 h41_6 t41_12 t41_3 t41_6 h41_6 t41_0 t41_4
 t41_6 h41_6 t41_1 t41_9 t41_6 h41_6 t41_1 t41_2 t41_6 h41_6 t41_7 t41_4
 t41_6 h41_6 t41_3 t41_0 t41_6 h41_7 t41_3 t41_7 t41_4 h41_7 t41_5 t41_7
 t41_6 b42 h42_7 t42_11 t42_8 t42_7 h42_7 t42_1 t42_2 t42_7 h42_7 t42_3
 t42_8 t42_7 h42_7 t42_11 t42_7 t42_6 h42_7 t42_12 t42_7 t42_6 h42_7 t42_1
 t42_7 t42_6 h42_7 t42_5 t42_8 t42_7 h42_7 t42_3 t42_7 t42_6 h42_7 t42_0
 t42_7 h42_7 t42_7 t42_4 t42_6 h42_8 t42_11 t42_3 t42_8 h42_8 t42_8 t42_6
 h42_8 t42_11 t42_8 t42_7 h42_8 t42_3 t42_8 t42_7 h42_8 t42_2 t42_8 t42_1
 h42_8 t42_8 t42_4 t42_12 h42_8 t42_5 t42_8 t42_7 h42_8 t42_5 t42_11 t42_8
 h42_8 t42_1 t42_3 t42_8 h42_8 t42_2 t42_9 t42_8 h42_8 t42_1 t42_9 t42_8
 h42_9 t42_9 t42_2 t42_6 h42_9 t42_5 t42_9 t42_2 h42_9 t42_10 t42_9 t42_2
 h42_9 t42_9 t42_3 t42_2 h42_9 t42_5 t42_9 t42_1 h42_9 t42_10 t42_9 t42_1
 h42_9 t42_1 t42_9 t42_6 h42_9 t42_9 t42_2 t42_4 h42_9 t42_2 t42_9 t42_8
 h42_9 t42_1 t42_9 t42_8 h42_10 t42_10 t42_9 t42_2 h42_10 t42_1 t42_10
 t42_2 h42_10 t42_10 t42_9 t42_1 h42_11 t42_11 t42_3 t42_8 h42_11 t42_11
 t42_8 t42_7 h42_11 t42_11 t42_3 t42_6 h42_11 t42_11 t42_7 t42_6 h42_11
 t42_12 t42_11 t42_6 h42_11 t42_5 t42_11 t42_6 h42_11 t42_5 t42_11 t42_8
 h42_12 t42_5 t42_12 t42_6 h42_12 t42_12 t42_7 t42_6 h42_12 t42_12 t42_11
 t42_6 h42_12 t42_8 t42_4 t42_12 h42_12 t42_12 t42_3 t42_6
End
